<number of tasks>
20


<number of equipment>
5


<cycle time>
1000


<investment costs>
1,29467
2,18194
3,12605
4,18724
5,13677


<task times>
1,52,280,-1,270,-1
2,117,219,-1,258,-1
3,294,361,-1,432,-1
4,-1,-1,153,97,130
5,-1,-1,261,218,308
6,-1,-1,294,182,210
7,-1,-1,391,353,375
8,43,165,-1,190,-1
9,57,240,-1,262,-1
10,-1,-1,225,164,233
11,74,274,-1,258,-1
12,-1,-1,395,371,392
13,-1,-1,-1,257,258
14,95,245,-1,224,-1
15,-1,-1,391,506,447
16,-1,-1,-1,315,369
17,-1,-1,-1,250,360
18,107,250,-1,235,-1
19,166,310,-1,317,-1
20,289,319,-1,270,-1


<precedence relations>
1,7
2,8
3,6
4,9
6,10
7,12
8,11
9,13
9,14
10,16
11,15
15,17
16,18
16,19
16,20


<task types>
1,3
2,3
3,3
4,2
5,2
6,2
7,2
8,3
9,3
10,2
11,3
12,2
13,1
14,3
15,2
16,1
17,1
18,3
19,3
20,3


<line depot>
1,0
2,1
3,0
4,5
5,1


<processing costs>
1,7200
2,7200
3,7200
4,21600
5,14400


<saving costs>
1,2946
2,1819
3,1260
4,1872
5,1367


<end>
